outputs/case_119.model.txt
capital_adequacy_ratio = 100
profit_loss_deteriorating = False
net_worth_ratio = 3
net_worth_deteriorating = False
capital_level_2_measures_completed = True
improvement_plan_approved = True
cannot_pay_debt = False
net_worth = 500
capital_level_3_measures_completed = True
cannot_fulfill_contract = False
improvement_plan_failed = False
capital_level_4_measures_completed = True
risk_to_insured_interest = True
improvement_plan_submitted = True
internal_handling_established = True
capital_level_2_noncompliance = False
financial_or_business_deterioration = True
interview_conducted = True
sales_recording_compliance = True
internal_control_and_audit_ok = True
explanation_doc_not_compliant = False
internal_handling_ok = True
capital_level_3_noncompliance = False
not_report_to_authority_in_time = False
internal_control_executed = True
phone_video_interview_compliance = True
recording_kept = True
not_provide_explanation_doc = False
internal_handling_executed = True
internal_control_established = True
improvement_plan_not_effective = False
report_or_explanation_false = False
violation_148_3_1 = False
capital_level_4_noncompliance = False
violation_148_1_2 = False
not_public_explanation_in_time = False
capital_level = 0
violation_148_1_2_flag = False
violation_148_2_1 = False
review_confirmed = True
improvement_plan_submitted_and_approved = True
interview_record_kept = True
penalty = False
violation_148_3_2 = False
supervision_measures_required = False
explanation_doc_false = False
violation_148_2_2 = False